\ Model MT-TSP-MICP
\ LP format - for model browsing. Use MPS format to capture full model detail.
Minimize
  l_tilde[0,1] + l_tilde[0,2] + l_tilde[0,3] + l_tilde[0,4] + l_tilde[1,0]
   + l_tilde[1,2] + l_tilde[1,3] + l_tilde[1,4] + l_tilde[2,0]
   + l_tilde[2,1] + l_tilde[2,3] + l_tilde[2,4] + l_tilde[3,0]
   + l_tilde[3,1] + l_tilde[3,2] + l_tilde[3,4] + l_tilde[4,0]
   + l_tilde[4,1] + l_tilde[4,2] + l_tilde[4,3]
Subject To
 R0: y_e[0,1] + y_e[0,2] + y_e[0,3] = 1
 R1: y_e[1,4] + y_e[2,4] + y_e[3,4] = 1
 R2: y_e[0,1] + y_e[2,1] + y_e[3,1] + y_e[4,1] = 1
 R3: y_e[1,0] + y_e[1,2] + y_e[1,3] + y_e[1,4] = 1
 R4: y_e[0,2] + y_e[1,2] + y_e[3,2] + y_e[4,2] = 1
 R5: y_e[2,0] + y_e[2,1] + y_e[2,3] + y_e[2,4] = 1
 R6: y_e[0,3] + y_e[1,3] + y_e[2,3] + y_e[4,3] = 1
 R7: y_e[3,0] + y_e[3,1] + y_e[3,2] + y_e[3,4] = 1
 R8: t[1] >= 0
 R9: t[1] <= 1000
 R10: t[2] >= 0
 R11: t[2] <= 1000
 R12: t[3] >= 0
 R13: t[3] <= 1000
 R14: - 0.1 t[1] + l_x[0,1] = 0
 R15: l_y[0,1] = 10
 R16: 2 t[0] - 2 t[1] + 2000 y_e[0,1] + l_tilde[0,1] <= 2000
 R17: t[0] = 0
 R18: t[4] >= 0
 R19: t[4] <= 1000
 R20: 14.14213562373095 y_e[0,1] - l_tilde[0,1] + l[0,1]
   = 14.14213562373095
 R21: l_x[0,2] = 8
 R22: - 0.3 t[2] + l_y[0,2] = 0
 R23: 2 t[0] - 2 t[2] + 2000 y_e[0,2] + l_tilde[0,2] <= 2000
 R24: t[0] = 0
 R25: t[4] >= 0
 R26: t[4] <= 1000
 R27: 14.14213562373095 y_e[0,2] - l_tilde[0,2] + l[0,2]
   = 14.14213562373095
 R28: 0.1 t[3] + l_x[0,3] = 5
 R29: - 0.3 t[3] + l_y[0,3] = 5
 R30: 2 t[0] - 2 t[3] + 2000 y_e[0,3] + l_tilde[0,3] <= 2000
 R31: t[0] = 0
 R32: t[4] >= 0
 R33: t[4] <= 1000
 R34: 14.14213562373095 y_e[0,3] - l_tilde[0,3] + l[0,3]
   = 14.14213562373095
 R35: l_x[0,4] = 0
 R36: l_y[0,4] = 0
 R37: 2 t[0] - 2 t[4] + 2000 y_e[0,4] + l_tilde[0,4] <= 2000
 R38: t[0] = 0
 R39: t[4] >= 0
 R40: t[4] <= 1000
 R41: 14.14213562373095 y_e[0,4] - l_tilde[0,4] + l[0,4]
   = 14.14213562373095
 R42: 0.1 t[1] + l_x[1,0] = 0
 R43: l_y[1,0] = -10
 R44: - 2 t[0] + 2 t[1] + 2000 y_e[1,0] + l_tilde[1,0] <= 2000
 R45: t[0] = 0
 R46: t[4] >= 0
 R47: t[4] <= 1000
 R48: 14.14213562373095 y_e[1,0] - l_tilde[1,0] + l[1,0]
   = 14.14213562373095
 R49: 0.1 t[1] + l_x[1,2] = 8
 R50: - 0.3 t[2] + l_y[1,2] = -10
 R51: 2 t[1] - 2 t[2] + 2000 y_e[1,2] + l_tilde[1,2] <= 2000
 R52: t[0] = 0
 R53: t[4] >= 0
 R54: t[4] <= 1000
 R55: 14.14213562373095 y_e[1,2] - l_tilde[1,2] + l[1,2]
   = 14.14213562373095
 R56: 0.1 t[1] + 0.1 t[3] + l_x[1,3] = 5
 R57: - 0.3 t[3] + l_y[1,3] = -5
 R58: 2 t[1] - 2 t[3] + 2000 y_e[1,3] + l_tilde[1,3] <= 2000
 R59: t[0] = 0
 R60: t[4] >= 0
 R61: t[4] <= 1000
 R62: 14.14213562373095 y_e[1,3] - l_tilde[1,3] + l[1,3]
   = 14.14213562373095
 R63: 0.1 t[1] + l_x[1,4] = 0
 R64: l_y[1,4] = -10
 R65: 2 t[1] - 2 t[4] + 2000 y_e[1,4] + l_tilde[1,4] <= 2000
 R66: t[0] = 0
 R67: t[4] >= 0
 R68: t[4] <= 1000
 R69: 14.14213562373095 y_e[1,4] - l_tilde[1,4] + l[1,4]
   = 14.14213562373095
 R70: l_x[2,0] = -8
 R71: 0.3 t[2] + l_y[2,0] = 0
 R72: - 2 t[0] + 2 t[2] + 2000 y_e[2,0] + l_tilde[2,0] <= 2000
 R73: t[0] = 0
 R74: t[4] >= 0
 R75: t[4] <= 1000
 R76: 14.14213562373095 y_e[2,0] - l_tilde[2,0] + l[2,0]
   = 14.14213562373095
 R77: - 0.1 t[1] + l_x[2,1] = -8
 R78: 0.3 t[2] + l_y[2,1] = 10
 R79: - 2 t[1] + 2 t[2] + 2000 y_e[2,1] + l_tilde[2,1] <= 2000
 R80: t[0] = 0
 R81: t[4] >= 0
 R82: t[4] <= 1000
 R83: 14.14213562373095 y_e[2,1] - l_tilde[2,1] + l[2,1]
   = 14.14213562373095
 R84: 0.1 t[3] + l_x[2,3] = -3
 R85: 0.3 t[2] - 0.3 t[3] + l_y[2,3] = 5
 R86: 2 t[2] - 2 t[3] + 2000 y_e[2,3] + l_tilde[2,3] <= 2000
 R87: t[0] = 0
 R88: t[4] >= 0
 R89: t[4] <= 1000
 R90: 14.14213562373095 y_e[2,3] - l_tilde[2,3] + l[2,3]
   = 14.14213562373095
 R91: l_x[2,4] = -8
 R92: 0.3 t[2] + l_y[2,4] = 0
 R93: 2 t[2] - 2 t[4] + 2000 y_e[2,4] + l_tilde[2,4] <= 2000
 R94: t[0] = 0
 R95: t[4] >= 0
 R96: t[4] <= 1000
 R97: 14.14213562373095 y_e[2,4] - l_tilde[2,4] + l[2,4]
   = 14.14213562373095
 R98: - 0.1 t[3] + l_x[3,0] = -5
 R99: 0.3 t[3] + l_y[3,0] = -5
 R100: - 2 t[0] + 2 t[3] + 2000 y_e[3,0] + l_tilde[3,0] <= 2000
 R101: t[0] = 0
 R102: t[4] >= 0
 R103: t[4] <= 1000
 R104: 14.14213562373095 y_e[3,0] - l_tilde[3,0] + l[3,0]
   = 14.14213562373095
 R105: - 0.1 t[1] - 0.1 t[3] + l_x[3,1] = -5
 R106: 0.3 t[3] + l_y[3,1] = 5
 R107: - 2 t[1] + 2 t[3] + 2000 y_e[3,1] + l_tilde[3,1] <= 2000
 R108: t[0] = 0
 R109: t[4] >= 0
 R110: t[4] <= 1000
 R111: 14.14213562373095 y_e[3,1] - l_tilde[3,1] + l[3,1]
   = 14.14213562373095
 R112: - 0.1 t[3] + l_x[3,2] = 3
 R113: - 0.3 t[2] + 0.3 t[3] + l_y[3,2] = -5
 R114: - 2 t[2] + 2 t[3] + 2000 y_e[3,2] + l_tilde[3,2] <= 2000
 R115: t[0] = 0
 R116: t[4] >= 0
 R117: t[4] <= 1000
 R118: 14.14213562373095 y_e[3,2] - l_tilde[3,2] + l[3,2]
   = 14.14213562373095
 R119: - 0.1 t[3] + l_x[3,4] = -5
 R120: 0.3 t[3] + l_y[3,4] = -5
 R121: 2 t[3] - 2 t[4] + 2000 y_e[3,4] + l_tilde[3,4] <= 2000
 R122: t[0] = 0
 R123: t[4] >= 0
 R124: t[4] <= 1000
 R125: 14.14213562373095 y_e[3,4] - l_tilde[3,4] + l[3,4]
   = 14.14213562373095
 R126: l_x[4,0] = 0
 R127: l_y[4,0] = 0
 R128: - 2 t[0] + 2 t[4] + 2000 y_e[4,0] + l_tilde[4,0] <= 2000
 R129: t[0] = 0
 R130: t[4] >= 0
 R131: t[4] <= 1000
 R132: 14.14213562373095 y_e[4,0] - l_tilde[4,0] + l[4,0]
   = 14.14213562373095
 R133: - 0.1 t[1] + l_x[4,1] = 0
 R134: l_y[4,1] = 10
 R135: - 2 t[1] + 2 t[4] + 2000 y_e[4,1] + l_tilde[4,1] <= 2000
 R136: t[0] = 0
 R137: t[4] >= 0
 R138: t[4] <= 1000
 R139: 14.14213562373095 y_e[4,1] - l_tilde[4,1] + l[4,1]
   = 14.14213562373095
 R140: l_x[4,2] = 8
 R141: - 0.3 t[2] + l_y[4,2] = 0
 R142: - 2 t[2] + 2 t[4] + 2000 y_e[4,2] + l_tilde[4,2] <= 2000
 R143: t[0] = 0
 R144: t[4] >= 0
 R145: t[4] <= 1000
 R146: 14.14213562373095 y_e[4,2] - l_tilde[4,2] + l[4,2]
   = 14.14213562373095
 R147: 0.1 t[3] + l_x[4,3] = 5
 R148: - 0.3 t[3] + l_y[4,3] = 5
 R149: - 2 t[3] + 2 t[4] + 2000 y_e[4,3] + l_tilde[4,3] <= 2000
 R150: t[0] = 0
 R151: t[4] >= 0
 R152: t[4] <= 1000
 R153: 14.14213562373095 y_e[4,3] - l_tilde[4,3] + l[4,3]
   = 14.14213562373095
 qc0: 400 y_e[0,1] - 28.2842712474619 l_tilde[0,1] + [ - 200 y_e[0,1] ^2
   + 28.2842712474619 y_e[0,1] * l_tilde[0,1] - l_tilde[0,1] ^2
   + l_x[0,1] ^2 + l_y[0,1] ^2 ] <= 200
 qc1: 400 y_e[0,2] - 28.2842712474619 l_tilde[0,2] + [ - 200 y_e[0,2] ^2
   + 28.2842712474619 y_e[0,2] * l_tilde[0,2] - l_tilde[0,2] ^2
   + l_x[0,2] ^2 + l_y[0,2] ^2 ] <= 200
 qc2: 400 y_e[0,3] - 28.2842712474619 l_tilde[0,3] + [ - 200 y_e[0,3] ^2
   + 28.2842712474619 y_e[0,3] * l_tilde[0,3] - l_tilde[0,3] ^2
   + l_x[0,3] ^2 + l_y[0,3] ^2 ] <= 200
 qc3: 400 y_e[0,4] - 28.2842712474619 l_tilde[0,4] + [ - 200 y_e[0,4] ^2
   + 28.2842712474619 y_e[0,4] * l_tilde[0,4] - l_tilde[0,4] ^2
   + l_x[0,4] ^2 + l_y[0,4] ^2 ] <= 200
 qc4: 400 y_e[1,0] - 28.2842712474619 l_tilde[1,0] + [ - 200 y_e[1,0] ^2
   + 28.2842712474619 y_e[1,0] * l_tilde[1,0] - l_tilde[1,0] ^2
   + l_x[1,0] ^2 + l_y[1,0] ^2 ] <= 200
 qc5: 400 y_e[1,2] - 28.2842712474619 l_tilde[1,2] + [ - 200 y_e[1,2] ^2
   + 28.2842712474619 y_e[1,2] * l_tilde[1,2] - l_tilde[1,2] ^2
   + l_x[1,2] ^2 + l_y[1,2] ^2 ] <= 200
 qc6: 400 y_e[1,3] - 28.2842712474619 l_tilde[1,3] + [ - 200 y_e[1,3] ^2
   + 28.2842712474619 y_e[1,3] * l_tilde[1,3] - l_tilde[1,3] ^2
   + l_x[1,3] ^2 + l_y[1,3] ^2 ] <= 200
 qc7: 400 y_e[1,4] - 28.2842712474619 l_tilde[1,4] + [ - 200 y_e[1,4] ^2
   + 28.2842712474619 y_e[1,4] * l_tilde[1,4] - l_tilde[1,4] ^2
   + l_x[1,4] ^2 + l_y[1,4] ^2 ] <= 200
 qc8: 400 y_e[2,0] - 28.2842712474619 l_tilde[2,0] + [ - 200 y_e[2,0] ^2
   + 28.2842712474619 y_e[2,0] * l_tilde[2,0] - l_tilde[2,0] ^2
   + l_x[2,0] ^2 + l_y[2,0] ^2 ] <= 200
 qc9: 400 y_e[2,1] - 28.2842712474619 l_tilde[2,1] + [ - 200 y_e[2,1] ^2
   + 28.2842712474619 y_e[2,1] * l_tilde[2,1] - l_tilde[2,1] ^2
   + l_x[2,1] ^2 + l_y[2,1] ^2 ] <= 200
 qc10: 400 y_e[2,3] - 28.2842712474619 l_tilde[2,3] + [ - 200 y_e[2,3] ^2
   + 28.2842712474619 y_e[2,3] * l_tilde[2,3] - l_tilde[2,3] ^2
   + l_x[2,3] ^2 + l_y[2,3] ^2 ] <= 200
 qc11: 400 y_e[2,4] - 28.2842712474619 l_tilde[2,4] + [ - 200 y_e[2,4] ^2
   + 28.2842712474619 y_e[2,4] * l_tilde[2,4] - l_tilde[2,4] ^2
   + l_x[2,4] ^2 + l_y[2,4] ^2 ] <= 200
 qc12: 400 y_e[3,0] - 28.2842712474619 l_tilde[3,0] + [ - 200 y_e[3,0] ^2
   + 28.2842712474619 y_e[3,0] * l_tilde[3,0] - l_tilde[3,0] ^2
   + l_x[3,0] ^2 + l_y[3,0] ^2 ] <= 200
 qc13: 400 y_e[3,1] - 28.2842712474619 l_tilde[3,1] + [ - 200 y_e[3,1] ^2
   + 28.2842712474619 y_e[3,1] * l_tilde[3,1] - l_tilde[3,1] ^2
   + l_x[3,1] ^2 + l_y[3,1] ^2 ] <= 200
 qc14: 400 y_e[3,2] - 28.2842712474619 l_tilde[3,2] + [ - 200 y_e[3,2] ^2
   + 28.2842712474619 y_e[3,2] * l_tilde[3,2] - l_tilde[3,2] ^2
   + l_x[3,2] ^2 + l_y[3,2] ^2 ] <= 200
 qc15: 400 y_e[3,4] - 28.2842712474619 l_tilde[3,4] + [ - 200 y_e[3,4] ^2
   + 28.2842712474619 y_e[3,4] * l_tilde[3,4] - l_tilde[3,4] ^2
   + l_x[3,4] ^2 + l_y[3,4] ^2 ] <= 200
 qc16: 400 y_e[4,0] - 28.2842712474619 l_tilde[4,0] + [ - 200 y_e[4,0] ^2
   + 28.2842712474619 y_e[4,0] * l_tilde[4,0] - l_tilde[4,0] ^2
   + l_x[4,0] ^2 + l_y[4,0] ^2 ] <= 200
 qc17: 400 y_e[4,1] - 28.2842712474619 l_tilde[4,1] + [ - 200 y_e[4,1] ^2
   + 28.2842712474619 y_e[4,1] * l_tilde[4,1] - l_tilde[4,1] ^2
   + l_x[4,1] ^2 + l_y[4,1] ^2 ] <= 200
 qc18: 400 y_e[4,2] - 28.2842712474619 l_tilde[4,2] + [ - 200 y_e[4,2] ^2
   + 28.2842712474619 y_e[4,2] * l_tilde[4,2] - l_tilde[4,2] ^2
   + l_x[4,2] ^2 + l_y[4,2] ^2 ] <= 200
 qc19: 400 y_e[4,3] - 28.2842712474619 l_tilde[4,3] + [ - 200 y_e[4,3] ^2
   + 28.2842712474619 y_e[4,3] * l_tilde[4,3] - l_tilde[4,3] ^2
   + l_x[4,3] ^2 + l_y[4,3] ^2 ] <= 200
Bounds
 t[0] <= 1000
 t[1] <= 1000
 t[2] <= 1000
 t[3] <= 1000
 t[4] <= 1000
 l_x[0,1] free
 l_x[0,2] free
 l_x[0,3] free
 l_x[0,4] free
 l_x[1,0] free
 l_x[1,2] free
 l_x[1,3] free
 l_x[1,4] free
 l_x[2,0] free
 l_x[2,1] free
 l_x[2,3] free
 l_x[2,4] free
 l_x[3,0] free
 l_x[3,1] free
 l_x[3,2] free
 l_x[3,4] free
 l_x[4,0] free
 l_x[4,1] free
 l_x[4,2] free
 l_x[4,3] free
 l_y[0,1] free
 l_y[0,2] free
 l_y[0,3] free
 l_y[0,4] free
 l_y[1,0] free
 l_y[1,2] free
 l_y[1,3] free
 l_y[1,4] free
 l_y[2,0] free
 l_y[2,1] free
 l_y[2,3] free
 l_y[2,4] free
 l_y[3,0] free
 l_y[3,1] free
 l_y[3,2] free
 l_y[3,4] free
 l_y[4,0] free
 l_y[4,1] free
 l_y[4,2] free
 l_y[4,3] free
Binaries
 y_e[0,1] y_e[0,2] y_e[0,3] y_e[0,4] y_e[1,0] y_e[1,2] y_e[1,3] y_e[1,4]
 y_e[2,0] y_e[2,1] y_e[2,3] y_e[2,4] y_e[3,0] y_e[3,1] y_e[3,2] y_e[3,4]
 y_e[4,0] y_e[4,1] y_e[4,2] y_e[4,3]
End
